100
32
24
13
8
32
27
14
7
9
11
6
11
26
20
5
2
17
14
5
17
25
21
25
17
30
26
25
20
8
17
2
31
20
21
12
28
14
23
26
27
25
30
18
24
32
21
29
11
10
12
18
29
5
18
24
22
18
23
24
23
13
31
18
23
5
18
6
2
20
4
27
25
29
8
14
22
18
20
29
18
26
11
7
21
3
21
5
24
18
26
22
23
27
28
6
19
17
8
25
1
30